
Gurobi 11.0.1 (win64) logging started Wed Nov 27 16:17:54 2024

Set parameter LogFile to value "ReLUFischettiObjdiff.log"
Gurobi Optimizer version 11.0.1 build v11.0.1rc0 (win64 - Windows 11.0 (22631.2))

CPU model: AMD Ryzen 7 4800H with Radeon Graphics, instruction set [SSE2|AVX|AVX2]
Thread count: 8 physical cores, 16 logical processors, using up to 16 threads

Optimize a model with 37 rows, 30 columns and 70 nonzeros
Model fingerprint: 0x13b8fb17
Model has 8 quadratic objective terms
Model has 2 quadratic constraints
Coefficient statistics:
  Matrix range     [1e-01, 2e+03]
  QMatrix range    [5e-02, 7e-01]
  QLMatrix range   [1e-01, 7e-01]
  Objective range  [1e-01, 5e-01]
  QObjective range [3e-01, 1e+00]
  Bounds range     [1e+00, 1e+00]
  RHS range        [1e-01, 2e+03]
Presolve removed 24 rows and 13 columns

Continuous model is non-convex -- solving as a MIP

Presolve removed 28 rows and 19 columns
Presolve time: 0.00s
Presolved: 34 rows, 21 columns, 82 nonzeros
Presolved model has 8 bilinear constraint(s)
Warning: Model contains variables with very large bounds participating
         in product terms.
         Presolve was not able to compute smaller bounds for these variables.
         Consider bounding these variables or reformulating the model.

Variable types: 21 continuous, 0 integer (0 binary)
Found heuristic solution: objective -824.6937468

Root relaxation: objective -8.621045e+02, 16 iterations, 0.00 seconds (0.00 work units)

    Nodes    |    Current Node    |     Objective Bounds      |     Work
 Expl Unexpl |  Obj  Depth IntInf | Incumbent    BestBd   Gap | It/Node Time

     0     0 -862.10452    0    8 -824.69375 -862.10452  4.54%     -    0s
H    0     0                    -824.8900000 -862.10452  4.51%     -    0s
     0     2 -862.10452    0    8 -824.89000 -862.10452  4.51%     -    0s

Explored 3 nodes (28 simplex iterations) in 0.03 seconds (0.00 work units)
Thread count was 16 (of 16 available processors)

Solution count 2: -824.89 -824.694 
No other solutions better than -824.89

Optimal solution found (tolerance 1.00e-04)
Warning: max constraint violation (5.3000e+00) exceeds tolerance
Warning: max bound violation (5.3000e+00) exceeds tolerance
Best objective -8.248900000000e+02, best bound -8.248900000000e+02, gap 0.0000%

Gurobi 11.0.1 (win64) logging started Thu Nov 28 14:53:15 2024

Set parameter LogFile to value "ReLUFischettiObjdiff.log"
Gurobi Optimizer version 11.0.1 build v11.0.1rc0 (win64 - Windows 11.0 (22631.2))

CPU model: AMD Ryzen 7 4800H with Radeon Graphics, instruction set [SSE2|AVX|AVX2]
Thread count: 8 physical cores, 16 logical processors, using up to 16 threads

Optimize a model with 37 rows, 30 columns and 70 nonzeros
Model fingerprint: 0xb4a1e155
Model has 8 quadratic objective terms
Model has 2 quadratic constraints
Coefficient statistics:
  Matrix range     [1e-01, 2e+03]
  QMatrix range    [5e-02, 7e-01]
  QLMatrix range   [1e-01, 7e-01]
  Objective range  [1e-01, 5e-01]
  QObjective range [3e-01, 1e+00]
  Bounds range     [1e+00, 2e+03]
  RHS range        [1e-01, 2e+03]
Presolve removed 24 rows and 13 columns

Continuous model is non-convex -- solving as a MIP

Presolve removed 28 rows and 19 columns
Presolve time: 0.01s
Presolved: 34 rows, 21 columns, 82 nonzeros
Presolved model has 8 bilinear constraint(s)
Warning: Model contains variables with very large bounds participating
         in product terms.
         Presolve was not able to compute smaller bounds for these variables.
         Consider bounding these variables or reformulating the model.

Variable types: 21 continuous, 0 integer (0 binary)
Found heuristic solution: objective -824.6937467

Root relaxation: objective -8.621045e+02, 16 iterations, 0.00 seconds (0.00 work units)

    Nodes    |    Current Node    |     Objective Bounds      |     Work
 Expl Unexpl |  Obj  Depth IntInf | Incumbent    BestBd   Gap | It/Node Time

     0     0 -862.10452    0    8 -824.69375 -862.10452  4.54%     -    0s
H    0     0                    -824.8900000 -862.10452  4.51%     -    0s
     0     2 -862.10452    0    8 -824.89000 -862.10452  4.51%     -    0s

Explored 3 nodes (28 simplex iterations) in 0.05 seconds (0.00 work units)
Thread count was 16 (of 16 available processors)

Solution count 2: -824.89 -824.694 
No other solutions better than -824.89

Optimal solution found (tolerance 1.00e-04)
Warning: max constraint violation (1.2330e+01) exceeds tolerance
Warning: max bound violation (1.2330e+01) exceeds tolerance
         (model may be infeasible or unbounded - try turning presolve off)
Best objective -8.248900000000e+02, best bound -8.248900000000e+02, gap 0.0000%

Gurobi 11.0.1 (win64) logging started Wed Dec  4 09:26:27 2024

Set parameter LogFile to value "ReLUFischettiObjdiff.log"
Gurobi Optimizer version 11.0.1 build v11.0.1rc0 (win64 - Windows 11.0 (22631.2))

CPU model: AMD Ryzen 7 4800H with Radeon Graphics, instruction set [SSE2|AVX|AVX2]
Thread count: 8 physical cores, 16 logical processors, using up to 16 threads

Optimize a model with 37 rows, 33 columns and 70 nonzeros
Model fingerprint: 0xcb07da1b
Model has 8 quadratic objective terms
Model has 2 quadratic constraints
Coefficient statistics:
  Matrix range     [1e-01, 2e+03]
  QMatrix range    [5e-02, 7e-01]
  QLMatrix range   [1e-01, 7e-01]
  Objective range  [1e-01, 5e-01]
  QObjective range [3e-01, 1e+00]
  Bounds range     [1e+00, 2e+03]
  RHS range        [1e-01, 2e+03]
Presolve removed 24 rows and 16 columns

Continuous model is non-convex -- solving as a MIP

Presolve removed 28 rows and 22 columns
Presolve time: 0.02s
Presolved: 34 rows, 21 columns, 82 nonzeros
Presolved model has 8 bilinear constraint(s)
Warning: Model contains variables with very large bounds participating
         in product terms.
         Presolve was not able to compute smaller bounds for these variables.
         Consider bounding these variables or reformulating the model.

Variable types: 21 continuous, 0 integer (0 binary)
Found heuristic solution: objective -824.6937467

Root relaxation: objective -8.621045e+02, 16 iterations, 0.00 seconds (0.00 work units)

    Nodes    |    Current Node    |     Objective Bounds      |     Work
 Expl Unexpl |  Obj  Depth IntInf | Incumbent    BestBd   Gap | It/Node Time

     0     0 -862.10452    0    8 -824.69375 -862.10452  4.54%     -    0s
H    0     0                    -824.8900000 -862.10452  4.51%     -    0s
     0     2 -862.10452    0    8 -824.89000 -862.10452  4.51%     -    0s

Explored 3 nodes (28 simplex iterations) in 0.10 seconds (0.00 work units)
Thread count was 16 (of 16 available processors)

Solution count 2: -824.89 -824.694 
No other solutions better than -824.89

Optimal solution found (tolerance 1.00e-04)
Warning: max constraint violation (1.2330e+01) exceeds tolerance
Warning: max bound violation (1.2330e+01) exceeds tolerance
         (model may be infeasible or unbounded - try turning presolve off)
Best objective -8.248900000000e+02, best bound -8.248900000000e+02, gap 0.0000%

Gurobi 11.0.1 (win64) logging started Wed Dec  4 09:57:28 2024

Set parameter LogFile to value "ReLUFischettiObjdiff.log"
Gurobi Optimizer version 11.0.1 build v11.0.1rc0 (win64 - Windows 11.0 (22631.2))

CPU model: AMD Ryzen 7 4800H with Radeon Graphics, instruction set [SSE2|AVX|AVX2]
Thread count: 8 physical cores, 16 logical processors, using up to 16 threads

Optimize a model with 55 rows, 40 columns and 120 nonzeros
Model fingerprint: 0x181d3869
Model has 5 quadratic objective terms
Model has 1 quadratic constraint
Variable types: 26 continuous, 14 integer (14 binary)
Coefficient statistics:
  Matrix range     [1e-02, 2e+03]
  QMatrix range    [1e+00, 2e+00]
  QLMatrix range   [6e-01, 6e-01]
  Objective range  [4e-03, 1e+00]
  QObjective range [1e+00, 3e+00]
  Bounds range     [1e+00, 2e+03]
  RHS range        [6e-03, 2e+03]
Presolve removed 33 rows and 21 columns
Presolve time: 0.00s

Explored 0 nodes (0 simplex iterations) in 0.01 seconds (0.00 work units)
Thread count was 1 (of 16 available processors)

Solution count 0

Model is infeasible or unbounded
Best objective -, best bound -, gap -

Gurobi 11.0.1 (win64) logging started Wed Dec  4 15:26:41 2024

Set parameter LogFile to value "ReLUFischettiObjdiff.log"
Gurobi Optimizer version 11.0.1 build v11.0.1rc0 (win64 - Windows 11.0 (22631.2))

CPU model: AMD Ryzen 7 4800H with Radeon Graphics, instruction set [SSE2|AVX|AVX2]
Thread count: 8 physical cores, 16 logical processors, using up to 16 threads

Optimize a model with 1769 rows, 944 columns and 17977 nonzeros
Model fingerprint: 0x556d4ff6
Model has 180 quadratic objective terms
Model has 9 quadratic constraints
Variable types: 884 continuous, 60 integer (60 binary)
Coefficient statistics:
  Matrix range     [5e-06, 2e+03]
  QMatrix range    [3e-04, 2e+00]
  QLMatrix range   [4e-02, 7e-01]
  Objective range  [2e-02, 9e-01]
  QObjective range [8e-03, 3e+00]
  Bounds range     [1e-02, 2e+03]
  RHS range        [5e-03, 2e+03]
Presolve removed 1639 rows and 31 columns
Presolve time: 0.03s
Presolved: 310 rows, 1093 columns, 17058 nonzeros
Variable types: 1044 continuous, 49 integer (49 binary)
Found heuristic solution: objective -1.9985894
Found heuristic solution: objective -3.0735373

Root relaxation: objective -4.119587e+02, 269 iterations, 0.01 seconds (0.01 work units)

    Nodes    |    Current Node    |     Objective Bounds      |     Work
 Expl Unexpl |  Obj  Depth IntInf | Incumbent    BestBd   Gap | It/Node Time

     0     0 -411.95873    0   35   -3.07354 -411.95873      -     -    0s
     0     2 -407.61804    0   35   -3.07354 -407.61804      -     -    0s
*  179   193              19     -49.1843705 -370.43446   653%  31.8    0s
*  233   209              23     -71.7928965 -370.43446   416%  28.5    0s
*  234   209              23     -75.9450396 -370.43446   388%  28.4    0s
*  372   310              21     -84.7928492 -361.03333   326%  31.8    0s
H  939   424                     -84.8371566 -303.10416   257%  35.4    1s
H  953   424                     -84.9022499 -303.10416   257%  35.5    1s
H  954   424                     -85.0387970 -303.10416   256%  35.4    1s
H 2032   415                     -85.6604675 -161.66230  88.7%  35.5    3s
H 2039   415                     -85.6929629 -155.75073  81.8%  35.5    3s
* 2855   408              21     -85.8125325 -135.53388  57.9%  32.1    3s
* 2868   408              19     -86.1835588 -135.53388  57.3%  32.0    3s

Explored 4675 nodes (132663 simplex iterations) in 4.78 seconds (4.90 work units)
Thread count was 16 (of 16 available processors)

Solution count 10: -86.1836 -86.1836 -85.8125 ... -3.07354
No other solutions better than -86.1836

Optimal solution found (tolerance 1.00e-04)
Best objective -8.618355881891e+01, best bound -8.618355881891e+01, gap 0.0000%
